Optimal - objective value 39.00000000
     26 r_26                        1                       1
     41 b_1                         1                       1
     42 b_2                         1                       1
     43 b_3                         1                       1
     44 b_4                         1                       1
     45 b_5                         1                       1
     46 b_6                         1                       1
     47 b_7                         1                       1
     48 b_8                         1                       1
     49 b_9                         1                       1
     50 b_10                        1                       1
     51 b_11                        1                       1
     52 b_12                        1                       1
     53 b_13                        1                       1
     54 b_14                        1                       1
     55 b_15                        1                       1
     56 b_16                        1                       1
     57 b_17                        1                       1
     58 b_18                        1                       1
     59 b_19                        1                       1
     60 b_20                        1                       1
     61 b_21                        1                       1
     62 b_22                        1                       1
     63 b_23                        1                       1
     64 b_24                        1                       1
     65 b_25                        1                       1
     67 b_27                        1                       1
     68 b_28                        1                       1
     69 b_29                        1                       1
     70 b_30                        1                       1
     71 b_31                        1                       1
     72 b_32                        1                       1
     73 b_33                        1                       1
     74 b_34                        1                       1
     75 b_35                        1                       1
     76 b_36                        1                       1
     77 b_37                        1                       1
     78 b_38                        1                       1
     79 b_39                        1                       1
